RT is False
Default write of storage_offers_DA.csv just to have a file (but constraint should be inactive)
Reading model...
...model read.
creating competitive generators file...
...competitive generators recorded.
Loading data...
.. day-ahead data with real-time VRE data read.
Compiling instance...
...instance created.
Creating Offer Mitigation (model will solve as dispatch if TRUE)...
Solving...

Welcome to IBM(R) ILOG(R) CPLEX(R) Interactive Optimizer 12.9.0.0
  with Simplex, Mixed Integer & Barrier Optimizers
5725-A06 5725-A29 5724-Y48 5724-Y49 5724-Y54 5724-Y55 5655-Y21
Copyright IBM Corp. 1988, 2019.  All Rights Reserved.

Type 'help' for a list of available commands.
Type 'help' followed by a command name for more
information on commands.

CPLEX> Logfile 'cplex.log' closed.
Logfile 'C:\Users\llavin\Desktop\test919\logs\tmpay10_knj.cplex.log' open.
CPLEX> New value for parallel optimization mode: -1
CPLEX> New value for mixed integer optimality gap tolerance: 0.01
CPLEX> New value for integrality tolerance: 1e-09
CPLEX> New value for feasibility tolerance: 0.01
CPLEX> New value for deterministic time limit in ticks: 75000
CPLEX> Problem 'C:\Users\llavin\Desktop\test919\logs\tmpxdxvtmev.pyomo.lp' read.
Read time = 0.06 sec. (3.04 ticks)
CPLEX> Problem name         : C:\Users\llavin\Desktop\test919\logs\tmpxdxvtmev.pyomo.lp
Objective sense      : Minimize
Variables            :   26081  [Nneg: 1,  Box: 21616,  Free: 4464]
Objective nonzeros   :    2496
Linear constraints   :   27515  [Less: 14006,  Greater: 4416,  Equal: 9093]
  Nonzeros           :   89219
  RHS nonzeros       :   12275

Variables            : Min LB: -5000.000        Max UB: 1000000.       
Objective nonzeros   : Min   : 15.73158         Max   : 124.0997       
Linear constraints   :
  Nonzeros           : Min   : 0.8500000        Max   : 3000.000       
  RHS nonzeros       : Min   : 0.04166667       Max   : 5000.000       
CPLEX> CPXPARAM_Parallel                                -1
CPXPARAM_Simplex_Tolerances_Feasibility          0.01
CPXPARAM_DetTimeLimit                            75000
CPXPARAM_MIP_Tolerances_MIPGap                   0.01
CPXPARAM_MIP_Tolerances_Integrality              1.0000000000000001e-09
Parallel mode: opportunistic, using up to 32 threads for concurrent optimization.
Tried aggregator 1 time.
LP Presolve eliminated 21377 rows and 15485 columns.
Aggregator did 744 substitutions.
Reduced LP has 5394 rows, 9852 columns, and 31799 nonzeros.
Presolve time = 0.06 sec. (30.22 ticks)
Symmetry aggregator did 5565 additional substitutions.

Iteration log . . .
Iteration:     1   Dual objective     =             0.000000
Perturbation started.
Iteration:   101   Dual objective     =             0.000000
Iteration:   339   Dual objective     =             1.326469
Iteration:   589   Dual objective     =             1.877420
Iteration:   851   Dual objective     =             2.015795
Iteration:  1072   Dual objective     =             2.134120
Iteration:  1352   Dual objective     =             2.176622
Iteration:  1603   Dual objective     =             2.205704
Iteration:  1826   Dual objective     =             2.227194
Iteration:  2036   Dual objective     =             2.247010
Iteration:  2239   Dual objective     =             2.259629
Iteration:  2503   Dual objective     =             2.272505
Iteration:  2960   Dual objective     =          1675.337315
Removing perturbation.

Dual crossover.
  Dual:  Fixing 1 variable.
Using devex.

Primal simplex solved model.


Primal simplex - Optimal:  Objective =  1.6730577958e+03
Solution time =    0.17 sec.  Iterations = 1553 (1165)
Deterministic time = 80.05 ticks  (465.38 ticks/sec)

CPLEX> Solution written to file 'C:\Users\llavin\Desktop\test919\logs\tmp7gb3_xtz.cplex.sol'.
CPLEX> Exporting results... 
...storage offer mitigation file created
Converting model to MPEC...
...converted
NOTE: initial MIP solve with only storage competitive to get feasible solution
Solving...

Welcome to IBM(R) ILOG(R) CPLEX(R) Interactive Optimizer 12.9.0.0
  with Simplex, Mixed Integer & Barrier Optimizers
5725-A06 5725-A29 5724-Y48 5724-Y49 5724-Y54 5724-Y55 5655-Y21
Copyright IBM Corp. 1988, 2019.  All Rights Reserved.

Type 'help' for a list of available commands.
Type 'help' followed by a command name for more
information on commands.

CPLEX> Logfile 'cplex.log' closed.
Logfile 'C:\Users\llavin\Desktop\test919\logs\tmpb6f7irmc.cplex.log' open.
CPLEX> New value for parallel optimization mode: -1
CPLEX> New value for mixed integer optimality gap tolerance: 0.01
CPLEX> New value for integrality tolerance: 1e-09
CPLEX> New value for feasibility tolerance: 0.01
CPLEX> New value for deterministic time limit in ticks: 75000
CPLEX> Problem 'C:\Users\llavin\Desktop\test919\logs\tmpy36g5z0v.pyomo.lp' read.
Read time = 0.25 sec. (14.78 ticks)
CPLEX> Problem name         : C:\Users\llavin\Desktop\test919\logs\tmpy36g5z0v.pyomo.lp
Objective sense      : Maximize
Variables            :   53805  [Nneg: 1,  Box: 22000,  Free: 4464,
                                 Binary: 27340]
Objective nonzeros   :    9033
Linear constraints   :  123205  [Less: 41346,  Greater: 59096,  Equal: 22763]
  Nonzeros           :  291757
  RHS nonzeros       :   67495

Variables            : Min LB: -5000.000        Max UB: 1000000.       
Objective nonzeros   : Min   : 0.04166667       Max   : 2500.000       
Linear constraints   :
  Nonzeros           : Min   : 0.04166667       Max   : 1000000.       
  RHS nonzeros       : Min   : 0.04166667       Max   : 1000000.       
CPLEX> CPXPARAM_Parallel                                -1
CPXPARAM_Simplex_Tolerances_Feasibility          0.01
CPXPARAM_DetTimeLimit                            75000
CPXPARAM_MIP_Tolerances_MIPGap                   0.01
CPXPARAM_MIP_Tolerances_Integrality              1.0000000000000001e-09
Tried aggregator 3 times.
MIP Presolve eliminated 88627 rows and 18955 columns.
MIP Presolve added 3384 rows and 0 columns.
MIP Presolve modified 24871 coefficients.
Aggregator did 13004 substitutions.
Reduced MIP has 24958 rows, 21294 columns, and 71177 nonzeros.
Reduced MIP has 8422 binaries, 0 generals, 0 SOSs, and 0 indicators.
Presolve time = 0.30 sec. (173.80 ticks)
Probing fixed 386 vars, tightened 2856 bounds.
Probing time = 1.17 sec. (879.60 ticks)
Tried aggregator 2 times.
MIP Presolve eliminated 872 rows and 773 columns.
MIP Presolve modified 2217 coefficients.
Aggregator did 35 substitutions.
Reduced MIP has 24051 rows, 20486 columns, and 68550 nonzeros.
Reduced MIP has 8036 binaries, 0 generals, 0 SOSs, and 0 indicators.
Presolve time = 0.11 sec. (69.15 ticks)
Probing time = 0.03 sec. (16.02 ticks)
Clique table members: 6352.
MIP emphasis: balance optimality and feasibility.
MIP search method: dynamic search.
Parallel mode: opportunistic, using up to 32 threads.
Root relaxation solution time = 0.45 sec. (525.90 ticks)

        Nodes                                         Cuts/
   Node  Left     Objective  IInf  Best Integer    Best Bound    ItCnt     Gap

      0     0        0.0000   625                      0.0000     7235         
*     0+    0                            0.0000        0.0000             0.00%
      0     0        cutoff              0.0000        0.0000     7235    0.00%
Elapsed time = 3.58 sec. (2684.08 ticks, tree = 0.01 MB, solutions = 1)

Root node processing (before b&c):
  Real time             =    3.59 sec. (2685.91 ticks)
Parallel b&c, 32 threads:
  Real time             =    0.00 sec. (0.00 ticks)
  Sync time (average)   =    0.00 sec.
  Wait time (average)   =    0.00 sec.
                          ------------
Total (root+branch&cut) =    3.59 sec. (2685.91 ticks)

Solution pool: 1 solution saved.

MIP - Integer optimal solution:  Objective =  1.3096723706e-10
Solution time =    3.63 sec.  Iterations = 7235  Nodes = 0
Deterministic time = 2686.06 ticks  (740.98 ticks/sec)

CPLEX> Incumbent solution written to file 'C:\Users\llavin\Desktop\test919\logs\tmpgz2bppjo.cplex.sol'.
CPLEX> NOTE: no warmstart specified for MIP iteration, default behavior is true
NOTE: resolving with all competitive generators using storage-only solution to warmstart
Solving...

Welcome to IBM(R) ILOG(R) CPLEX(R) Interactive Optimizer 12.9.0.0
  with Simplex, Mixed Integer & Barrier Optimizers
5725-A06 5725-A29 5724-Y48 5724-Y49 5724-Y54 5724-Y55 5655-Y21
Copyright IBM Corp. 1988, 2019.  All Rights Reserved.

Type 'help' for a list of available commands.
Type 'help' followed by a command name for more
information on commands.

CPLEX> Logfile 'cplex.log' closed.
Logfile 'C:\Users\llavin\Desktop\test919\logs\tmpii62g4sw.cplex.log' open.
CPLEX> New value for parallel optimization mode: -1
CPLEX> New value for mixed integer optimality gap tolerance: 0.01
CPLEX> New value for integrality tolerance: 1e-09
CPLEX> New value for feasibility tolerance: 0.01
CPLEX> New value for deterministic time limit in ticks: 75000
CPLEX> Problem 'C:\Users\llavin\Desktop\test919\logs\tmprdhsz46q.pyomo.lp' read.
Read time = 0.25 sec. (14.81 ticks)
CPLEX> MIP start file 'C:\Users\llavin\Desktop\test919\logs\tmp3j8jovpc.cplex.mst' read.
CPLEX> Problem name         : C:\Users\llavin\Desktop\test919\logs\tmprdhsz46q.pyomo.lp
Objective sense      : Maximize
Variables            :   54525  [Nneg: 1,  Box: 22720,  Free: 4464,
                                 Binary: 27340]
Objective nonzeros   :    9729
Linear constraints   :  123205  [Less: 41346,  Greater: 59096,  Equal: 22763]
  Nonzeros           :  291757
  RHS nonzeros       :   67495

Variables            : Min LB: -5000.000        Max UB: 1000000.       
Objective nonzeros   : Min   : 0.04166667       Max   : 2500.000       
Linear constraints   :
  Nonzeros           : Min   : 0.04166667       Max   : 1000000.       
  RHS nonzeros       : Min   : 0.04166667       Max   : 1000000.       
CPLEX> CPXPARAM_Parallel                                -1
CPXPARAM_Simplex_Tolerances_Feasibility          0.01
CPXPARAM_DetTimeLimit                            75000
CPXPARAM_MIP_Tolerances_MIPGap                   0.01
CPXPARAM_MIP_Tolerances_Integrality              1.0000000000000001e-09
Warning:  No solution found from 1 MIP starts.
Retaining values of one MIP start for possible repair.
Tried aggregator 3 times.
MIP Presolve eliminated 88627 rows and 19675 columns.
MIP Presolve added 3384 rows and 0 columns.
MIP Presolve modified 24871 coefficients.
Aggregator did 13004 substitutions.
Reduced MIP has 24958 rows, 21294 columns, and 71177 nonzeros.
Reduced MIP has 8422 binaries, 0 generals, 0 SOSs, and 0 indicators.
Presolve time = 0.28 sec. (174.16 ticks)
Probing fixed 386 vars, tightened 2856 bounds.
Probing time = 1.19 sec. (879.60 ticks)
Tried aggregator 2 times.
MIP Presolve eliminated 872 rows and 773 columns.
MIP Presolve modified 2217 coefficients.
Aggregator did 35 substitutions.
Reduced MIP has 24051 rows, 20486 columns, and 68550 nonzeros.
Reduced MIP has 8036 binaries, 0 generals, 0 SOSs, and 0 indicators.
Presolve time = 0.11 sec. (69.15 ticks)
Probing time = 0.03 sec. (16.02 ticks)
Clique table members: 6352.
MIP emphasis: balance optimality and feasibility.
MIP search method: dynamic search.
Parallel mode: opportunistic, using up to 32 threads.
Root relaxation solution time = 0.38 sec. (279.10 ticks)

        Nodes                                         Cuts/
   Node  Left     Objective  IInf  Best Integer    Best Bound    ItCnt     Gap

      0     0    95956.2419  1683                  95956.2419     7206         
      0     0    88118.0817   681                   Cuts: 540     7509         
      0     0    87766.3654   605                   Cuts: 243     7631         
      0     0    87224.4432   565                   Cuts: 113     7699         
      0     0    87224.4432   538                    Cuts: 93     7746         
      0     0    82016.4204   458                   Cuts: 101     7950         
      0     0    82015.6750   434                    Cuts: 79     7998         
      0     0    81785.2014   409                    Cuts: 59     8055         
      0     0    81784.6583   401                    Cuts: 32     8072         
      0     0    81783.3187   395                    Cuts: 33     8084         
      0     0    81781.8788   391                    Cuts: 28     8098         
Repair heuristic found nothing.
      0     8    32727.7042   326                    Cuts: 11     8567         
Elapsed time = 11.63 sec. (6966.91 ticks, tree = 0.02 MB, solutions = 0)
    495    71     8273.1838   308                  31570.7142    16040         
    751   239   -33941.5624   299                  31570.7142    30476         
*  1033+  254                            0.0000    31570.7142              --- 
   1574   235    21378.4455   294        0.0000    31570.7142    37932     --- 
   2247   874    15469.8083   262        0.0000    31570.7142    41859     --- 
   3164  1325     9782.5320   267        0.0000    31570.7142    42511     --- 
   4556  2096     6575.0242   237        0.0000    31570.7142    42665     --- 
   5679  2777     8244.4192   276        0.0000    31570.7142    42673     --- 
   6053  3665    14415.5235   259        0.0000    31570.7142    42706     --- 
*  6080     0      integral     0        0.0000                  49525     --- 
Elapsed time = 25.94 sec. (11680.84 ticks, tree = 0.01 MB, solutions = 8)

Clique cuts applied:  5
Cover cuts applied:  14
Implied bound cuts applied:  14
Flow cuts applied:  706
Mixed integer rounding cuts applied:  95
Gomory fractional cuts applied:  62

Root node processing (before b&c):
  Real time             =    9.95 sec. (6947.57 ticks)
Parallel b&c, 32 threads:
  Real time             =   16.02 sec. (4737.66 ticks)
  Sync time (average)   =    1.58 sec.
  Wait time (average)   =    0.00 sec.
                          ------------
Total (root+branch&cut) =   25.97 sec. (11685.23 ticks)

Solution pool: 8 solutions saved.

MIP - Integer optimal solution:  Objective =  9.6432813734e-08
Solution time =   26.02 sec.  Iterations = 49525  Nodes = 6080
Deterministic time = 11685.39 ticks  (449.18 ticks/sec)

CPLEX> Incumbent solution written to file 'C:\Users\llavin\Desktop\test919\logs\tmpueqt4z13.cplex.sol'.
CPLEX> Exporting results... 
